
Log started (V12.10.0.0) Fri Apr  2 09:12:49 2021


Problem 'asset.lp' read.
Read time = 0.00 sec. (0.16 ticks)
New value for default parallel thread count: 1
New value for time limit in seconds: 300
Version identifier: 12.10.0.0 | 2019-11-26 | 843d4de
CPXPARAM_Threads                                 1
CPXPARAM_TimeLimit                               300
Found incumbent of value -0.891741 after 0.00 sec. (0.08 ticks)
Tried aggregator 3 times.
MIP Presolve eliminated 330 rows and 132 columns.
MIP Presolve modified 1209 coefficients.
Aggregator did 539 substitutions.
Reduced MIP has 639 rows, 737 columns, and 3164 nonzeros.
Reduced MIP has 662 binaries, 41 generals, 0 SOSs, and 0 indicators.
Presolve time = 0.01 sec. (6.50 ticks)
Probing fixed 45 vars, tightened 0 bounds.
Probing time = 0.00 sec. (2.44 ticks)
Cover probing fixed 0 vars, tightened 39 bounds.
Tried aggregator 1 time.
Detecting symmetries...
MIP Presolve eliminated 49 rows and 49 columns.
MIP Presolve modified 264 coefficients.
Reduced MIP has 590 rows, 688 columns, and 2808 nonzeros.
Reduced MIP has 613 binaries, 41 generals, 0 SOSs, and 0 indicators.
Presolve time = 0.00 sec. (3.05 ticks)
Probing time = 0.00 sec. (2.06 ticks)
Clique table members: 1862.
MIP emphasis: balance optimality and feasibility.
MIP search method: dynamic search.
Parallel mode: none, using 1 thread.
Root relaxation solution time = 0.01 sec. (5.55 ticks)

        Nodes                                         Cuts/
   Node  Left     Objective  IInf  Best Integer    Best Bound    ItCnt     Gap

*     0+    0                           -0.8917      411.5183              --- 
      0     0      322.3681   147       -0.8917      322.3681      367     --- 
      0     0      290.3310   147       -0.8917     Cuts: 247      760     --- 
      0     0      287.3923   147       -0.8917     Cuts: 247     1034     --- 
      0     0      285.7717   147       -0.8917     Cuts: 214     1379     --- 
      0     0      285.0099   147       -0.8917     Cuts: 224     1610     --- 
      0     0      284.2730   147       -0.8917     Cuts: 145     1822     --- 
Detecting symmetries...
      0     0      283.3876   147       -0.8917     Cuts: 199     1987     --- 
      0     0      281.9523   147       -0.8917     Cuts: 163     2244     --- 
*     0+    0                            1.5452      281.9523              --- 
*     0+    0                           20.8552      281.9523              --- 
      0     0        cutoff             20.8552      281.9523     2244     --- 
      0     0      280.8085   147       20.8552     Cuts: 182     2334     --- 
      0     0      277.3090   147       20.8552     Cuts: 106     2456     --- 
      0     0      276.9923   147       20.8552     Cuts: 145     2556     --- 
      0     0      276.8339   147       20.8552      Cuts: 73     2621     --- 
      0     0      276.7276   147       20.8552     Cuts: 140     2729     --- 
      0     0      276.6702   147       20.8552     Cuts: 101     2799     --- 
      0     0      276.5305   147       20.8552      Cuts: 82     2870     --- 
      0     0      276.3933   147       20.8552      Cuts: 90     2969     --- 
      0     0      276.3286   147       20.8552      Cuts: 87     3025     --- 
      0     0      276.2297   147       20.8552      Cuts: 57     3160     --- 
      0     0      276.1283   147       20.8552      Cuts: 50     3243     --- 
      0     0      276.0262   147       20.8552      Cuts: 75     3297     --- 
      0     0      275.9744   147       20.8552      Cuts: 79     3384     --- 
      0     0      275.9413   147       20.8552      Cuts: 55     3482     --- 
*     0+    0                          241.4994      275.9413            14.26%
*     0+    0                          241.5029      275.9413            14.26%
*     0+    0                          241.5042      275.9413            14.26%
      0     0        cutoff            241.5042      275.9413     3482   14.26%
Detecting symmetries...
      0     2      275.9413   171      241.5042      275.9413     3482   14.26%
Elapsed time = 0.36 sec. (380.15 ticks, tree = 0.01 MB, solutions = 5)
     87    77      266.7533   125      241.5042      275.9154     9418   14.25%
    214   181      260.7148   128      241.5042      275.8897    15615   14.24%
    319   274      255.2141    86      241.5042      275.8818    22313   14.23%
    398   335      259.7856   121      241.5042      275.8316    27638   14.21%
*   450+  380                          241.7825      275.7551            14.05%
*   456   383      integral     0      241.7835      275.7551    29515   14.05%
    504   429        cutoff            241.7835      275.7551    34634   14.05%

Performing restart 1

Repeating presolve.
Tried aggregator 1 time.
MIP Presolve modified 562 coefficients.
Reduced MIP has 590 rows, 688 columns, and 2444 nonzeros.
Reduced MIP has 614 binaries, 40 generals, 0 SOSs, and 0 indicators.
Presolve time = 0.00 sec. (2.46 ticks)
Tried aggregator 1 time.
Reduced MIP has 590 rows, 688 columns, and 2444 nonzeros.
Reduced MIP has 614 binaries, 40 generals, 0 SOSs, and 0 indicators.
Presolve time = 0.00 sec. (1.94 ticks)
Represolve time = 0.02 sec. (13.92 ticks)
    566     0      269.6585   158      241.7835     Cuts: 178    39305   11.53%
    566     0      267.8301   158      241.7835     Cuts: 115    39436   10.77%
    566     0      265.9523   158      241.7835     Cuts: 146    39551   10.00%
    566     0      264.5203   158      241.7835     Cuts: 139    39643    9.40%
    566     0      264.4198   158      241.7835     Cuts: 115    39715    9.36%
    566     0      263.0137   158      241.7835      Cuts: 58    39844    8.78%
    566     0      262.8381   158      241.7835      Cuts: 77    39936    8.71%
    566     0      262.5967   158      241.7835      Cuts: 64    40100    8.61%
    566     0      262.5927   158      241.7835      Cuts: 57    40158    8.61%
    566     0      262.5921   158      241.7835      Cuts: 35    40219    8.61%
    566     0      262.5919   158      241.7835      Cuts: 14    40231    8.61%
    566     0      262.5917   158      241.7835      Cuts: 10    40245    8.61%
    566     0      262.5278   158      241.7835      Cuts: 12    40262    8.58%
    566     0      262.5278   158      241.7835      Cuts: 20    40286    8.58%
    566     0      262.5197   158      241.7835      Cuts: 17    40346    8.58%
*   566+    0                          246.8663      262.5197             6.34%
*   566+    0                          246.8691      262.5197             6.34%
*   566+    0                          246.8727      262.5197             6.34%
    566     2      262.2880   113      246.8727      262.1142    40502    6.17%
    574     7      256.9694    89      246.8727      260.3861    41424    5.47%
    586    12      253.3660    69      246.8727      259.9572    42507    5.30%
*   696+   61                          251.3702      257.7732             2.55%
*   716+    9                          256.4732      257.4586             0.38%
*   716+    9                          256.4734      257.4586             0.38%

GUB cover cuts applied:  6
Clique cuts applied:  80
Cover cuts applied:  1
Implied bound cuts applied:  26
Flow cuts applied:  3
Mixed integer rounding cuts applied:  16
Zero-half cuts applied:  23
Lift and project cuts applied:  22
Gomory fractional cuts applied:  10

Root node processing (before b&c):
  Real time             =    0.36 sec. (380.17 ticks)
Sequential b&c:
  Real time             =    3.15 sec. (3769.08 ticks)
                          ------------
Total (root+branch&cut) =    3.51 sec. (4149.25 ticks)

Solution pool: 14 solutions saved.

MIP - Integer optimal, tolerance (0.0001/1e-06):  Objective =  2.5647341221e+02
Current MIP best bound =  2.5648124319e+02 (gap = 0.00783098, 0.00%)
Solution time =    3.51 sec.  Iterations = 46870  Nodes = 739 (18)
Deterministic time = 4149.25 ticks  (1182.91 ticks/sec)


Incumbent solution
Variable Name           Solution Value
F                           280.000000
f1                            0.926588
f2                           22.600000
y3                            1.000000
y58                           1.000000
y88                           1.000000
y109                          1.000000
y251                          1.000000
y187                          1.000000
y73                           1.000000
y23                           1.000000
y20                           1.000000
y238                          1.000000
y186                          1.000000
y306                          1.000000
y129                          1.000000
y145                          1.000000
y128                          1.000000
y164                          1.000000
s3                            6.320114
s16                           6.000000
s58                           6.064052
s66                           6.000000
s84                           6.000000
s87                           6.000000
s88                           6.598912
s97                           6.000000
s109                          6.059022
s114                          6.000000
s206                          6.000000
s215                          6.000000
s240                          6.000000
s254                          6.000000
s261                          6.000000
s264                          6.000000
s289                          6.000000
s251                          6.914352
s187                          6.754874
s226                          6.070000
s73                           6.150000
s181                          6.180000
s239                          6.200000
s23                           7.183993
s20                           6.740507
s238                          6.780387
s77                           6.520000
s70                           6.560000
s94                           6.680000
s186                          7.646194
s306                          7.744744
s129                          7.647147
s145                          7.922903
s128                          7.927649
s294                          7.010000
s164                          7.787399
s185                          7.100000
x176x187x1                    1.000000
x119x251x1                    1.000000
x22x145x1                     1.000000
x22x164x1                     1.000000
x169x306x1                    1.000000
x170x88x1                     1.000000
x301x73x1                     1.000000
x201x88x2                     1.000000
x4x20x2                       1.000000
x4x238x2                      1.000000
x176x187x2                    1.000000
x119x186x2                    1.000000
x110x109x2                    1.000000
x231x58x2                     1.000000
x301x3x2                      1.000000
x174x109x2                    1.000000
x257x251x3                    1.000000
x257x238x3                    1.000000
x201x20x3                     1.000000
x170x3x3                      1.000000
x231x58x3                     1.000000
x174x73x3                     1.000000
x3x164x2                      1.000000
x3x306x3                      1.000000
x58x186x2                     1.000000
x58x129x3                     1.000000
x88x0x1                       1.000000
x88x0x2                       1.000000
x109x0x2                      1.000000
x109x129x2                    1.000000
x251x0x1                      1.000000
x251x0x3                      1.000000
x187x0x1                      1.000000
x187x0x2                      1.000000
x73x23x1                      1.000000
x73x23x3                      1.000000
x23x0x1                       1.000000
x23x0x3                       1.000000
x20x128x2                     1.000000
x20x128x3                     1.000000
x238x0x2                      1.000000
x238x145x3                    1.000000
x186x0x2                      2.000000
x306x0x1                      1.000000
x306x0x3                      1.000000
x129x0x2                      1.000000
x129x0x3                      1.000000
x145x0x1                      1.000000
x145x0x3                      1.000000
x128x0x2                      1.000000
x128x0x3                      1.000000
x164x0x1                      1.000000
x164x0x2                      1.000000
s257                          5.223607
z257z251z3                    1.000000
z257z238z3                    1.000000
z257z294z3                    1.000000
z257z185z3                    1.000000
s201                          5.204150
z201z88z2                     1.000000
z201z20z3                     1.000000
z201z186z2                    1.000000
z201z294z3                    1.000000
z201z185z3                    1.000000
s4                            5.289081
z4z20z2                       1.000000
z4z238z2                      1.000000
z4z186z2                      1.000000
s176                          5.192397
z176z187z1                    1.000000
z176z187z2                    1.000000
s119                          5.475165
z119z251z1                    1.000000
z119z186z2                    1.000000
s22                           5.846516
z22z145z1                     1.000000
z22z164z1                     1.000000
s169                          5.979306
z169z306z1                    1.000000
s110                          4.368240
z110z109z2                    1.000000
z110z186z2                    1.000000
s170                          4.397450
z170z3z3                      1.000000
z170z88z1                     1.000000
z170z239z3                    1.000000
z170z70z3                     1.000000
z170z94z3                     1.000000
z170z294z3                    1.000000
z170z185z3                    1.000000
s231                          4.554990
z231z58z2                     1.000000
z231z58z3                     1.000000
z231z239z3                    1.000000
z231z70z3                     1.000000
z231z94z3                     1.000000
z231z186z2                    1.000000
z231z294z3                    1.000000
z231z185z3                    1.000000
s301                          4.564040
z301z3z2                      1.000000
z301z73z1                     1.000000
z301z186z2                    1.000000
s174                          4.610780
z174z109z2                    1.000000
z174z73z3                     1.000000
z174z239z3                    1.000000
z174z70z3                     1.000000
z174z94z3                     1.000000
z174z186z2                    1.000000
z174z294z3                    1.000000
z174z185z3                    1.000000
z3z306z3                      1.000000
z3z164z2                      1.000000
z58z186z2                     1.000000
z58z129z3                     1.000000
z109z129z2                    1.000000
z73z23z1                      1.000000
z73z23z3                      1.000000
z20z128z2                     1.000000
z20z128z3                     1.000000
z238z145z3                    1.000000
All other variables in the range 1-1410 are 0.
